50 8
769 606
464 298
397 428
972 222
821 289
771 646
744 663
898 356
259 529
679 602
582 322
373 402
627 648
586 167
547 790
353 567
349 659
864 260
823 834
172 239
507 339
911 969
500 717
531 410
341 240
508 261
899 291
131 260
812 547
667 436
955 272
30 405
640 176
399 410
775 839
68 515
73 434
648 640
546 317
811 93
154 265
729 711
722 239
117 155
634 170
238 417
590 698
737 647
98 143
867 914
